Gurobi Optimizer version 9.1.2 build v9.1.2rc0 (linux64)
Thread count: 36 physical cores, 72 logical processors, using up to 32 threads
Optimize a model with 12 rows, 57 columns and 590 nonzeros
Model fingerprint: 0xf32eec78
Model has 47 quadratic constraints
Coefficient statistics:
  Matrix range     [2e-05, 3e+00]
  QMatrix range    [1e+00, 1e+00]
  QLMatrix range   [1e+00, 1e+00]
  Objective range  [8e-03, 7e-01]
  Bounds range     [1e+00, 1e+00]
  RHS range        [1e+00, 1e+00]
Presolve removed 9 rows and 0 columns

Continuous model is non-convex -- solving as a MIP.

Presolve removed 9 rows and 0 columns
Presolve time: 0.00s
Presolved: 189 rows, 57 columns, 443 nonzeros
Presolved model has 47 bilinear constraint(s)
Variable types: 57 continuous, 0 integer (0 binary)

Root relaxation: objective -1.743721e+00, 44 iterations, 0.00 seconds

    Nodes    |    Current Node    |     Objective Bounds      |     Work
 Expl Unexpl |  Obj  Depth IntInf | Incumbent    BestBd   Gap | It/Node Time

     0     0   -1.74372    0   38          -   -1.74372      -     -    0s
H    0     0                       0.6147548   -1.74372   384%     -    0s
     0     0   -1.64739    0    1    0.61475   -1.64739   368%     -    0s
H    0     0                      -1.6450460   -1.64739  0.14%     -    0s
     0     0     cutoff    0        -1.64505   -1.64505  0.00%     -    0s

Cutting planes:
  RLT: 25
  BQP: 3

Explored 1 nodes (76 simplex iterations) in 0.01 seconds
Thread count was 32 (of 72 available processors)

Solution count 2: -1.64505 0.614755 
No other solutions better than -1.64505

Optimal solution found (tolerance 1.00e-04)
Best objective -1.645045978473e+00, best bound -1.645045978473e+00, gap 0.0000%

User-callback calls 78, time in user-callback 0.00 sec
Gurobi Optimizer version 9.1.2 build v9.1.2rc0 (linux64)
Thread count: 36 physical cores, 72 logical processors, using up to 32 threads
Optimize a model with 60 rows, 312 columns and 16100 nonzeros
Model fingerprint: 0x0d5f1626
Model has 262 quadratic constraints
Coefficient statistics:
  Matrix range     [4e-07, 7e+00]
  QMatrix range    [1e+00, 1e+00]
  QLMatrix range   [1e+00, 1e+00]
  Objective range  [5e-03, 1e+00]
  Bounds range     [1e+00, 1e+00]
  RHS range        [1e+00, 1e+00]
Presolve removed 16 rows and 0 columns

Continuous model is non-convex -- solving as a MIP.

Presolve removed 16 rows and 0 columns
Presolve time: 0.01s
Presolved: 1080 rows, 312 columns, 13135 nonzeros
Presolved model has 262 bilinear constraint(s)
Variable types: 312 continuous, 0 integer (0 binary)

Root relaxation: objective -2.840525e+01, 321 iterations, 0.02 seconds

    Nodes    |    Current Node    |     Objective Bounds      |     Work
 Expl Unexpl |  Obj  Depth IntInf | Incumbent    BestBd   Gap | It/Node Time

     0     0  -28.40525    0   95          -  -28.40525      -     -    0s
     0     0  -27.15856    0  163          -  -27.15856      -     -    0s
     0     0  -27.12604    0   74          -  -27.12604      -     -    0s
     0     0  -27.07494    0  172          -  -27.07494      -     -    0s
     0     0  -27.07275    0  172          -  -27.07275      -     -    0s
     0     0  -27.06377    0   74          -  -27.06377      -     -    0s
     0     0  -27.06199    0   74          -  -27.06199      -     -    0s
     0     0  -27.06024    0   74          -  -27.06024      -     -    0s
     0     0  -27.06003    0   74          -  -27.06003      -     -    0s
     0     0  -27.05978    0   74          -  -27.05978      -     -    0s
     0     2  -27.05978    0   74          -  -27.05978      -     -    0s
* 2007  1953              53     -25.4105863  -25.99946  2.32%  46.0    1s
* 2013  1953              53     -25.4291887  -25.99946  2.24%  45.9    1s
* 2014  1953              53     -25.4292303  -25.99946  2.24%  45.9    1s
* 2633  1896              54     -25.4359731  -25.91429  1.88%  45.3    1s
* 2815  1897              70     -25.4631379  -25.91429  1.77%  45.4    1s
* 2816  1897              70     -25.4631404  -25.91429  1.77%  45.4    1s
* 2817  1897              69     -25.4631557  -25.91429  1.77%  45.4    1s
* 7208  1672              64     -25.4899997  -25.91429  1.66%  49.2    4s
* 7986  1806              68     -25.4968857  -25.91429  1.64%  48.1    4s
  8533  1784     cutoff   30       -25.49689  -25.91429  1.64%  47.4    5s
* 8925  1766              64     -25.5327842  -25.91429  1.49%  47.0    5s
*10119  1777              72     -25.5335578  -25.91429  1.49%  45.8    5s
*10120  1777              72     -25.5335673  -25.91429  1.49%  45.8    5s
*10123  1777              71     -25.5335895  -25.91429  1.49%  45.8    5s
*10349  1730              64     -25.5380929  -25.91429  1.47%  45.7    5s
*10908  1717              80     -25.5386763  -25.91429  1.47%  45.3    5s
*10912  1717              79     -25.5386787  -25.91429  1.47%  45.3    5s
*10997  1717              60     -25.5391253  -25.91429  1.47%  45.3    5s
*11426  1721              76     -25.5460422  -25.91429  1.44%  44.8    5s
*11427  1721              76     -25.5461732  -25.91429  1.44%  44.8    5s
*13547  1703              69     -25.5468381  -25.91429  1.44%  43.8    6s
*14654  1755              66     -25.5491103  -25.64974  0.39%  43.2    6s
*14903  1755              69     -25.5498922  -25.64974  0.39%  42.9    6s
*15000  1755              76     -25.5503203  -25.64974  0.39%  42.8    6s
*15313  1722              72     -25.5566563  -25.62690  0.27%  42.5    6s
*17219  1303              60     -25.5566813  -25.58580  0.11%  41.3    7s
*17223  1303              61     -25.5566942  -25.58580  0.11%  41.3    7s
*17226  1303              61     -25.5566954  -25.58580  0.11%  41.3    7s
*17729  1303              70     -25.5567795  -25.58327  0.10%  40.8    7s
*17731  1303              69     -25.5568070  -25.58327  0.10%  40.8    7s
*18164  1199              67     -25.5570536  -25.57201  0.06%  40.4    7s
*18166  1199              68     -25.5571942  -25.57201  0.06%  40.4    7s
*18181  1199              72     -25.5571944  -25.57201  0.06%  40.4    7s
*18182  1199              72     -25.5571952  -25.57201  0.06%  40.4    7s
*18928   824              66     -25.5576059  -25.56949  0.05%  39.4    7s
*19473   824              67     -25.5579330  -25.56949  0.05%  38.6    7s
*20170   639              70     -25.5579617  -25.56363  0.02%  37.6    7s
*20173   639              71     -25.5580285  -25.56363  0.02%  37.6    7s
*20386   639              67     -25.5582467  -25.56171  0.01%  37.2    7s
*21394   165              71     -25.5582601  -25.55965  0.01%  35.7    7s

Explored 21881 nodes (766176 simplex iterations) in 7.59 seconds
Thread count was 32 (of 72 available processors)

Solution count 10: -25.5583 -25.5582 -25.558 ... -25.5571

Optimal solution found (tolerance 1.00e-04)
Best objective -2.555826010781e+01, best bound -2.555880921902e+01, gap 0.0021%

User-callback calls 44774, time in user-callback 0.01 sec



objective value: -25.5582601078125
objective bound: -25.55880921902209
x_opt: [1.0, 1.0000000000700613, 0.0, 0.4129040953553596, 0.0, 0.0, 1.0, 0.0, 0.0, 0.0, 1.0, 0.0, 1.0, 1.0, 0.21807607993070416, 1.0, 0.0, 1.0, 0.0, 0.0, 1.0, 0.6545875411610972, 0.0, 0.8130419045014706, 0.0, 0.7623364841357836, 0.0, 1.0, 0.0, 0.0, 1.0, 0.8777994473012454, 0.0, 0.397156739321041, 1.0, 1.0, 0.07223219294244, 1.0, 0.0, 0.8249129131207338, 1.0, 0.0, 1.0, 0.016992560242479054, 0.0, 0.08490316298262865, 0.9027418155556616, 0.0, 1.0, 0.1594731571515818]
GUROBI solution time: 7.5912230014801025




